sat

(objectives
 ((bvadd PriceProv5 (bvadd PriceProv4 (bvadd PriceProv3 (bvadd PriceProv1 PriceProv2)))) (_ bv6520 32))
)
;; statistics
(
 :cnf-variables 633
 :cnf-literals 1975
 :cnf-clauses 885
 :sat-checks 12
 :sat-restarts 19
 :sat-decisions 14357
 :sat-random-decisions 6
 :sat-propagations 28710813
 :sat-theory-propagations 19
 :sat-watched-clauses-visited 30735627
 :sat-binary-watched-clauses-visited 19557388
 :sat-conflicts 3143
 :sat-theory-conflicts 0
 :theory-necessary-interface-equalities 0
 :theory-extra-interface-equalities 0
 :euf-total-calls 15397
 :euf-complete-calls 10
 :euf-conflicts 0
 :euf-implications 19
 :euf-explanations 1
 :euf-egraph-nodes-created 7071
 :euf-egraph-nodes-deleted 5366
 :euf-num-asserted-equalities 133601
 :euf-num-asserted-inequalities 71193
 :euf-num-merges 244064
 :euf-num-merges-undone 244064
 :euf-num-atoms-retold 1088
 :la-total-calls 15397
 :la-complete-calls 10
 :la-conflicts 0
 :la-implications 0
 :la-explanations 0
 :la-num-equalities-split 0
 :la-num-tableau-rows 0
 :la-num-tableau-variables 0
 :bv-total-calls 15397
 :bv-complete-calls 10
 :bv-conflicts 0
 :bv-implications 0
 :bv-explanations 0
 :fp-total-calls 15397
 :fp-complete-calls 10
 :fp-conflicts 0
 :fp-implications 0
 :fp-explanations 0
 :arr-total-calls 15397
 :arr-complete-calls 10
 :arr-conflicts 0
 :arr-implications 0
 :arr-explanations 0
 :arr-write-lemmas-added 0
 :arr-row-lemmas-added 0
 :arr-ext-lemmas-added 0
 :arr-const-lemmas-added 0
 :na-total-calls 15397
 :na-complete-calls 10
 :na-conflicts 0
 :na-implications 0
 :na-explanations 0
 :na-num_nonlinear_multiplications 0
 :na-num_axiom_checks 0
 :na-num_zero_lemmas 0
 :na-num_sign_lemmas 0
 :na-num_neutral_lemmas 0
 :na-num_proportionality_lemmas 0
 :na-num_bound_lemmas 0
 :na-num_tangent_lemmas 0
 :na-num_monotonicity_lemmas 0
 :na-num_sat_checks 0
 :na-axiom_check_time 0.000
 :na-sat_check_time 0.000
 :time-seconds 3.444
 :memory-mb 54.411
)
